
Gurobi 11.0.1 (win64) logging started Mon May 13 14:55:14 2024

Set parameter LogFile to value "output/solver_log1.txt"
Gurobi Optimizer version 11.0.1 build v11.0.1rc0 (win64 - Windows 11.0 (22631.2))

CPU model: 11th Gen Intel(R) Core(TM) i7-1165G7 @ 2.80GHz, instruction set [SSE2|AVX|AVX2|AVX512]
Thread count: 4 physical cores, 8 logical processors, using up to 8 threads

Optimize a model with 1195 rows, 338 columns and 22059 nonzeros
Model fingerprint: 0xda76f6f7
Variable types: 88 continuous, 250 integer (250 binary)
Coefficient statistics:
  Matrix range     [4e-01, 1e+05]
  Objective range  [1e+00, 1e+02]
  Bounds range     [1e+00, 1e+00]
  RHS range        [1e-02, 1e+05]

User MIP start produced solution with objective 36730.3 (0.00s)
User MIP start produced solution with objective 53872.5 (0.00s)
User MIP start produced solution with objective 53872.5 (0.00s)
Loaded user MIP start with objective 53872.5

Presolve removed 138 rows and 142 columns
Presolve time: 0.02s
Presolved: 1057 rows, 196 columns, 20914 nonzeros
Variable types: 81 continuous, 115 integer (113 binary)

Root relaxation: objective 5.522980e+04, 345 iterations, 0.01 seconds (0.03 work units)

    Nodes    |    Current Node    |     Objective Bounds      |     Work
 Expl Unexpl |  Obj  Depth IntInf | Incumbent    BestBd   Gap | It/Node Time

*    0     0               0    55229.801886 55229.8019  0.00%     -    0s

Explored 1 nodes (715 simplex iterations) in 0.09 seconds (0.17 work units)
Thread count was 8 (of 8 available processors)

Solution count 4: 55229.8 55229.8 53872.5 36730.3 

Optimal solution found (tolerance 1.00e-04)
Best objective 5.522980188584e+04, best bound 5.522980188584e+04, gap 0.0000%
